(set-info :source |printed by MathSAT|)
(declare-fun call__DRAGON_.ite9 () Int)
(declare-fun call__DRAGON_.ite52 () Int)
(declare-fun call__DRAGON_.ite56 () Int)
(declare-fun call__DRAGON_.shared () Int)
(declare-fun call__DRAGON_.ite15 () Int)
(declare-fun call__DRAGON_.g02 () Bool)
(declare-fun call_First.flby () Int)
(declare-fun call__DRAGON_.ite36 () Int)
(declare-fun shared () Int)
(declare-fun param_e01 () Bool)
(declare-fun call__DRAGON_.shared_dirty () Int)
(declare-fun call__DRAGON_.ite51 () Int)
(declare-fun call__DRAGON_.ite24 () Int)
(declare-fun param_init_invalid () Int)
(declare-fun call__DRAGON_.ite43 () Int)
(declare-fun call__DRAGON_.ite16 () Int)
(declare-fun call__DRAGON_.ite8 () Int)
(declare-fun call__DRAGON_.ite13 () Int)
(declare-fun invalid () Int)
(declare-fun call_Sofar.flby () Bool)
(declare-fun param_e11 () Bool)
(declare-fun param_e12 () Bool)
(declare-fun call__DRAGON_.ite29 () Int)
(declare-fun call__DRAGON_.ite57 () Int)
(declare-fun call__DRAGON_.ite11 () Int)
(declare-fun call__DRAGON_.ite37 () Int)
(declare-fun call__DRAGON_.ite19 () Int)
(declare-fun call__DRAGON_.ite20 () Int)
(declare-fun call__DRAGON_.ite17 () Int)
(declare-fun call__DRAGON_.ite3 () Int)
(declare-fun call__DRAGON_.ite27 () Int)
(declare-fun _OK_ () Bool)
(declare-fun call__DRAGON_.ite46 () Int)
(declare-fun call__DRAGON_.g08 () Bool)
(declare-fun param_e03 () Bool)
(declare-fun call__DRAGON_.ite26 () Int)
(declare-fun call__DRAGON_.g06 () Bool)
(declare-fun call__DRAGON_.ite40 () Int)
(declare-fun call__DRAGON_.ite54 () Int)
(declare-fun call__DRAGON_.ite41 () Int)
(declare-fun param_e08 () Bool)
(declare-fun call__DRAGON_.ite6 () Int)
(declare-fun dirty () Int)
(declare-fun call__DRAGON_.flby () Int)
(declare-fun call__DRAGON_.g05 () Bool)
(declare-fun call__DRAGON_.flby5 () Int)
(declare-fun call__DRAGON_.g04 () Bool)
(declare-fun call__DRAGON_.ite45 () Int)
(declare-fun call__DRAGON_.erreur () Bool)
(declare-fun call__DRAGON_.ite50 () Int)
(declare-fun call__DRAGON_.ite32 () Int)
(declare-fun call__DRAGON_.ite30 () Int)
(declare-fun call__DRAGON_.ite49 () Int)
(declare-fun call__DRAGON_.ite4 () Int)
(declare-fun env () Bool)
(declare-fun call__DRAGON_.ite58 () Int)
(declare-fun call__DRAGON_.ite14 () Int)
(declare-fun param_e07 () Bool)
(declare-fun call__DRAGON_.ite12 () Int)
(declare-fun call__DRAGON_.ite28 () Int)
(declare-fun call_Sofar.Sofar () Bool)
(declare-fun call__DRAGON_.ite35 () Int)
(declare-fun call__DRAGON_.ite42 () Int)
(declare-fun call__DRAGON_.flby6 () Int)
(declare-fun param_e04 () Bool)
(declare-fun call__DRAGON_.flby3 () Int)
(declare-fun call_excludes12.excludes () Bool)
(declare-fun call__DRAGON_.ite5 () Int)
(declare-fun call__DRAGON_.dirty () Int)
(declare-fun call__DRAGON_.ite22 () Int)
(declare-fun call__DRAGON_.ite61 () Int)
(declare-fun call__DRAGON_.ite55 () Int)
(declare-fun call__DRAGON_.ite38 () Int)
(declare-fun call__DRAGON_.flby2 () Int)
(declare-fun call__DRAGON_.ite44 () Int)
(declare-fun call__DRAGON_.ite18 () Int)
(declare-fun call__DRAGON_.ite48 () Int)
(declare-fun call__DRAGON_.ite () Bool)
(declare-fun call__DRAGON_.ite7 () Int)
(declare-fun param_e05 () Bool)
(declare-fun call__DRAGON_.mem_init () Int)
(declare-fun call__DRAGON_.ite53 () Int)
(declare-fun call__DRAGON_.ite10 () Int)
(declare-fun call__DRAGON_.ite25 () Int)
(declare-fun shared_dirty () Int)
(declare-fun call_First.First () Int)
(declare-fun erreur () Bool)
(declare-fun call__DRAGON_.ite21 () Int)
(declare-fun call__DRAGON_.ite47 () Int)
(declare-fun call__DRAGON_.ite34 () Int)
(declare-fun param_e09 () Bool)
(declare-fun call__DRAGON_.ite23 () Int)
(declare-fun call__DRAGON_.ite33 () Int)
(declare-fun call__DRAGON_.exclusive () Int)
(declare-fun call__DRAGON_.invalid () Int)
(declare-fun param_e02 () Bool)
(declare-fun param_e06 () Bool)
(declare-fun call__DRAGON_.ite31 () Int)
(declare-fun call__DRAGON_.ite60 () Int)
(declare-fun param_e10 () Bool)
(declare-fun call__DRAGON_.flby4 () Int)
(declare-fun call__DRAGON_.ite39 () Int)
(declare-fun call__DRAGON_.ite59 () Int)
(declare-fun call__DRAGON_.ite2 () Int)
(declare-fun exclusive () Int)
(define-fun .def_1741 () Bool (= call_First.flby call_First.First))
(define-fun .def_1739 () Bool (= call_Sofar.flby call_Sofar.Sofar))
(define-fun .def_1548 () Bool (not param_e02))
(define-fun .def_1529 () Bool (not param_e01))
(define-fun .def_1637 () Bool (and .def_1529 .def_1548))
(define-fun .def_1589 () Bool (not param_e03))
(define-fun .def_1638 () Bool (and .def_1589 .def_1637))
(define-fun .def_1605 () Bool (not param_e04))
(define-fun .def_1639 () Bool (and .def_1605 .def_1638))
(define-fun .def_1398 () Bool (not param_e05))
(define-fun .def_1640 () Bool (and .def_1398 .def_1639))
(define-fun .def_1380 () Bool (not param_e06))
(define-fun .def_1641 () Bool (and .def_1380 .def_1640))
(define-fun .def_1415 () Bool (not param_e07))
(define-fun .def_1642 () Bool (and .def_1415 .def_1641))
(define-fun .def_1434 () Bool (not param_e08))
(define-fun .def_1643 () Bool (and .def_1434 .def_1642))
(define-fun .def_1273 () Bool (not param_e09))
(define-fun .def_1644 () Bool (and .def_1273 .def_1643))
(define-fun .def_1279 () Bool (not param_e10))
(define-fun .def_1645 () Bool (and .def_1279 .def_1644))
(define-fun .def_1286 () Bool (not param_e11))
(define-fun .def_1646 () Bool (and .def_1286 .def_1645))
(define-fun .def_1293 () Bool (not param_e12))
(define-fun .def_1724 () Bool (and .def_1293 .def_1646))
(define-fun .def_1713 () Bool (and param_e01 .def_1548))
(define-fun .def_1714 () Bool (and .def_1589 .def_1713))
(define-fun .def_1715 () Bool (and .def_1605 .def_1714))
(define-fun .def_1716 () Bool (and .def_1398 .def_1715))
(define-fun .def_1717 () Bool (and .def_1380 .def_1716))
(define-fun .def_1718 () Bool (and .def_1415 .def_1717))
(define-fun .def_1719 () Bool (and .def_1434 .def_1718))
(define-fun .def_1720 () Bool (and .def_1273 .def_1719))
(define-fun .def_1721 () Bool (and .def_1279 .def_1720))
(define-fun .def_1722 () Bool (and .def_1286 .def_1721))
(define-fun .def_1723 () Bool (and .def_1293 .def_1722))
(define-fun .def_1725 () Bool (or .def_1723 .def_1724))
(define-fun .def_1702 () Bool (and .def_1529 param_e02))
(define-fun .def_1703 () Bool (and .def_1589 .def_1702))
(define-fun .def_1704 () Bool (and .def_1605 .def_1703))
(define-fun .def_1705 () Bool (and .def_1398 .def_1704))
(define-fun .def_1706 () Bool (and .def_1380 .def_1705))
(define-fun .def_1707 () Bool (and .def_1415 .def_1706))
(define-fun .def_1708 () Bool (and .def_1434 .def_1707))
(define-fun .def_1709 () Bool (and .def_1273 .def_1708))
(define-fun .def_1710 () Bool (and .def_1279 .def_1709))
(define-fun .def_1711 () Bool (and .def_1286 .def_1710))
(define-fun .def_1712 () Bool (and .def_1293 .def_1711))
(define-fun .def_1726 () Bool (or .def_1712 .def_1725))
(define-fun .def_1692 () Bool (and param_e03 .def_1637))
(define-fun .def_1693 () Bool (and .def_1605 .def_1692))
(define-fun .def_1694 () Bool (and .def_1398 .def_1693))
(define-fun .def_1695 () Bool (and .def_1380 .def_1694))
(define-fun .def_1696 () Bool (and .def_1415 .def_1695))
(define-fun .def_1697 () Bool (and .def_1434 .def_1696))
(define-fun .def_1698 () Bool (and .def_1273 .def_1697))
(define-fun .def_1699 () Bool (and .def_1279 .def_1698))
(define-fun .def_1700 () Bool (and .def_1286 .def_1699))
(define-fun .def_1701 () Bool (and .def_1293 .def_1700))
(define-fun .def_1727 () Bool (or .def_1701 .def_1726))
(define-fun .def_1683 () Bool (and param_e04 .def_1638))
(define-fun .def_1684 () Bool (and .def_1398 .def_1683))
(define-fun .def_1685 () Bool (and .def_1380 .def_1684))
(define-fun .def_1686 () Bool (and .def_1415 .def_1685))
(define-fun .def_1687 () Bool (and .def_1434 .def_1686))
(define-fun .def_1688 () Bool (and .def_1273 .def_1687))
(define-fun .def_1689 () Bool (and .def_1279 .def_1688))
(define-fun .def_1690 () Bool (and .def_1286 .def_1689))
(define-fun .def_1691 () Bool (and .def_1293 .def_1690))
(define-fun .def_1728 () Bool (or .def_1691 .def_1727))
(define-fun .def_1675 () Bool (and param_e05 .def_1639))
(define-fun .def_1676 () Bool (and .def_1380 .def_1675))
(define-fun .def_1677 () Bool (and .def_1415 .def_1676))
(define-fun .def_1678 () Bool (and .def_1434 .def_1677))
(define-fun .def_1679 () Bool (and .def_1273 .def_1678))
(define-fun .def_1680 () Bool (and .def_1279 .def_1679))
(define-fun .def_1681 () Bool (and .def_1286 .def_1680))
(define-fun .def_1682 () Bool (and .def_1293 .def_1681))
(define-fun .def_1729 () Bool (or .def_1682 .def_1728))
(define-fun .def_1668 () Bool (and param_e06 .def_1640))
(define-fun .def_1669 () Bool (and .def_1415 .def_1668))
(define-fun .def_1670 () Bool (and .def_1434 .def_1669))
(define-fun .def_1671 () Bool (and .def_1273 .def_1670))
(define-fun .def_1672 () Bool (and .def_1279 .def_1671))
(define-fun .def_1673 () Bool (and .def_1286 .def_1672))
(define-fun .def_1674 () Bool (and .def_1293 .def_1673))
(define-fun .def_1730 () Bool (or .def_1674 .def_1729))
(define-fun .def_1662 () Bool (and param_e07 .def_1641))
(define-fun .def_1663 () Bool (and .def_1434 .def_1662))
(define-fun .def_1664 () Bool (and .def_1273 .def_1663))
(define-fun .def_1665 () Bool (and .def_1279 .def_1664))
(define-fun .def_1666 () Bool (and .def_1286 .def_1665))
(define-fun .def_1667 () Bool (and .def_1293 .def_1666))
(define-fun .def_1731 () Bool (or .def_1667 .def_1730))
(define-fun .def_1657 () Bool (and param_e08 .def_1642))
(define-fun .def_1658 () Bool (and .def_1273 .def_1657))
(define-fun .def_1659 () Bool (and .def_1279 .def_1658))
(define-fun .def_1660 () Bool (and .def_1286 .def_1659))
(define-fun .def_1661 () Bool (and .def_1293 .def_1660))
(define-fun .def_1732 () Bool (or .def_1661 .def_1731))
(define-fun .def_1653 () Bool (and param_e09 .def_1643))
(define-fun .def_1654 () Bool (and .def_1279 .def_1653))
(define-fun .def_1655 () Bool (and .def_1286 .def_1654))
(define-fun .def_1656 () Bool (and .def_1293 .def_1655))
(define-fun .def_1733 () Bool (or .def_1656 .def_1732))
(define-fun .def_1650 () Bool (and param_e10 .def_1644))
(define-fun .def_1651 () Bool (and .def_1286 .def_1650))
(define-fun .def_1652 () Bool (and .def_1293 .def_1651))
(define-fun .def_1734 () Bool (or .def_1652 .def_1733))
(define-fun .def_1648 () Bool (and param_e11 .def_1645))
(define-fun .def_1649 () Bool (and .def_1293 .def_1648))
(define-fun .def_1735 () Bool (or .def_1649 .def_1734))
(define-fun .def_1647 () Bool (and param_e12 .def_1646))
(define-fun .def_1736 () Bool (or .def_1647 .def_1735))
(define-fun .def_1737 () Bool (= call_excludes12.excludes .def_1736))
(define-fun .def_1635 () Bool (= call__DRAGON_.mem_init call__DRAGON_.flby))
(define-fun .def_1633 () Bool (= call__DRAGON_.erreur call__DRAGON_.ite))
(define-fun .def_1631 () Bool (= call__DRAGON_.flby6 call__DRAGON_.invalid))
(define-fun .def_1629 () Bool (= call__DRAGON_.flby5 call__DRAGON_.dirty))
(define-fun .def_1627 () Bool (= call__DRAGON_.flby4 call__DRAGON_.shared_dirty))
(define-fun .def_1625 () Bool (= call__DRAGON_.flby3 call__DRAGON_.shared))
(define-fun .def_1622 () Bool (= call__DRAGON_.flby2 call__DRAGON_.exclusive))
(define-fun .def_1617 () Bool (<= 2 call__DRAGON_.exclusive))
(define-fun .def_1619 () Bool (not .def_1617))
(define-fun .def_1620 () Bool (or call__DRAGON_.ite .def_1619))
(define-fun .def_1616 () Bool (not call__DRAGON_.ite))
(define-fun .def_1618 () Bool (or .def_1616 .def_1617))
(define-fun .def_1621 () Bool (and .def_1618 .def_1620))
(define-fun .def_1623 () Bool (and .def_1621 .def_1622))
(define-fun .def_1611 () Bool (= call__DRAGON_.ite29 call__DRAGON_.ite30))
(define-fun .def_1612 () Bool (or param_e04 .def_1611))
(define-fun .def_1608 () Bool (= call__DRAGON_.ite23 call__DRAGON_.ite30))
(define-fun .def_1609 () Bool (or .def_1605 .def_1608))
(define-fun .def_1604 () Bool (= call__DRAGON_.ite43 call__DRAGON_.ite34))
(define-fun .def_1606 () Bool (or .def_1604 .def_1605))
(define-fun .def_1600 () Bool (= call__DRAGON_.ite42 call__DRAGON_.ite43))
(define-fun .def_1602 () Bool (or .def_1600 param_e04))
(define-fun .def_1607 () Bool (and .def_1602 .def_1606))
(define-fun .def_1610 () Bool (and .def_1607 .def_1609))
(define-fun .def_1613 () Bool (and .def_1610 .def_1612))
(define-fun .def_1596 () Bool (= call__DRAGON_.ite8 call__DRAGON_.ite9))
(define-fun .def_1597 () Bool (or param_e03 .def_1596))
(define-fun .def_1593 () Bool (= call__DRAGON_.ite9 call__DRAGON_.ite4))
(define-fun .def_1594 () Bool (or .def_1589 .def_1593))
(define-fun .def_1588 () Bool (= call__DRAGON_.ite44 call__DRAGON_.ite33))
(define-fun .def_1590 () Bool (or .def_1588 .def_1589))
(define-fun .def_1584 () Bool (= call__DRAGON_.ite44 call__DRAGON_.ite43))
(define-fun .def_1586 () Bool (or .def_1584 param_e03))
(define-fun .def_1591 () Bool (and .def_1586 .def_1590))
(define-fun .def_1595 () Bool (and .def_1591 .def_1594))
(define-fun .def_1598 () Bool (and .def_1595 .def_1597))
(define-fun .def_1579 () Bool (= call__DRAGON_.ite31 call__DRAGON_.ite30))
(define-fun .def_1580 () Bool (or param_e02 .def_1579))
(define-fun .def_1575 () Bool (= call__DRAGON_.ite22 call__DRAGON_.ite31))
(define-fun .def_1576 () Bool (or .def_1548 .def_1575))
(define-fun .def_1570 () Bool (= call__DRAGON_.ite20 call__DRAGON_.ite21))
(define-fun .def_1571 () Bool (or param_e02 .def_1570))
(define-fun .def_1567 () Bool (= call__DRAGON_.ite12 call__DRAGON_.ite21))
(define-fun .def_1568 () Bool (or .def_1548 .def_1567))
(define-fun .def_1562 () Bool (= call__DRAGON_.ite10 call__DRAGON_.ite9))
(define-fun .def_1563 () Bool (or param_e02 .def_1562))
(define-fun .def_1558 () Bool (= call__DRAGON_.ite3 call__DRAGON_.ite10))
(define-fun .def_1559 () Bool (or .def_1548 .def_1558))
(define-fun .def_1555 () Bool (= call__DRAGON_.ite59 call__DRAGON_.ite60))
(define-fun .def_1556 () Bool (or param_e02 .def_1555))
(define-fun .def_1552 () Bool (= call__DRAGON_.ite60 call__DRAGON_.ite47))
(define-fun .def_1553 () Bool (or .def_1548 .def_1552))
(define-fun .def_1547 () Bool (= call__DRAGON_.ite32 call__DRAGON_.ite45))
(define-fun .def_1549 () Bool (or .def_1547 .def_1548))
(define-fun .def_1544 () Bool (= call__DRAGON_.ite45 call__DRAGON_.ite44))
(define-fun .def_1546 () Bool (or .def_1544 param_e02))
(define-fun .def_1550 () Bool (and .def_1546 .def_1549))
(define-fun .def_1554 () Bool (and .def_1550 .def_1553))
(define-fun .def_1557 () Bool (and .def_1554 .def_1556))
(define-fun .def_1560 () Bool (and .def_1557 .def_1559))
(define-fun .def_1564 () Bool (and .def_1560 .def_1563))
(define-fun .def_1569 () Bool (and .def_1564 .def_1568))
(define-fun .def_1572 () Bool (and .def_1569 .def_1571))
(define-fun .def_1577 () Bool (and .def_1572 .def_1576))
(define-fun .def_1581 () Bool (and .def_1577 .def_1580))
(define-fun .def_1538 () Bool (= call__DRAGON_.ite11 call__DRAGON_.ite10))
(define-fun .def_1539 () Bool (or param_e01 .def_1538))
(define-fun .def_1534 () Bool (= call__DRAGON_.ite2 call__DRAGON_.ite11))
(define-fun .def_1535 () Bool (or .def_1529 .def_1534))
(define-fun .def_1528 () Bool (= call__DRAGON_.ite61 call__DRAGON_.ite46))
(define-fun .def_1530 () Bool (or .def_1528 .def_1529))
(define-fun .def_1524 () Bool (= call__DRAGON_.ite61 call__DRAGON_.ite60))
(define-fun .def_1526 () Bool (or .def_1524 param_e01))
(define-fun .def_1531 () Bool (and .def_1526 .def_1530))
(define-fun .def_1536 () Bool (and .def_1531 .def_1535))
(define-fun .def_1540 () Bool (and .def_1536 .def_1539))
(define-fun .def_1518 () Bool (= call__DRAGON_.ite55 call__DRAGON_.ite52))
(define-fun .def_1519 () Bool (or .def_1286 .def_1518))
(define-fun .def_1515 () Bool (= call__DRAGON_.ite54 call__DRAGON_.ite55))
(define-fun .def_1516 () Bool (or param_e11 .def_1515))
(define-fun .def_1520 () Bool (and .def_1516 .def_1519))
(define-fun .def_1511 () Bool (= call__DRAGON_.ite56 call__DRAGON_.ite51))
(define-fun .def_1512 () Bool (or .def_1279 .def_1511))
(define-fun .def_1508 () Bool (= call__DRAGON_.ite56 call__DRAGON_.ite55))
(define-fun .def_1509 () Bool (or param_e10 .def_1508))
(define-fun .def_1513 () Bool (and .def_1509 .def_1512))
(define-fun .def_1503 () Bool (= call__DRAGON_.ite57 call__DRAGON_.ite50))
(define-fun .def_1504 () Bool (or .def_1273 .def_1503))
(define-fun .def_1500 () Bool (= call__DRAGON_.ite57 call__DRAGON_.ite56))
(define-fun .def_1501 () Bool (or param_e09 .def_1500))
(define-fun .def_1505 () Bool (and .def_1501 .def_1504))
(define-fun .def_1497 () Bool (= env call_Sofar.Sofar))
(define-fun .def_1494 () Bool (= erreur call__DRAGON_.erreur))
(define-fun .def_1490 () Bool (= invalid call__DRAGON_.invalid))
(define-fun .def_1486 () Bool (= dirty call__DRAGON_.dirty))
(define-fun .def_1482 () Bool (= shared_dirty call__DRAGON_.shared_dirty))
(define-fun .def_1478 () Bool (= shared call__DRAGON_.shared))
(define-fun .def_1475 () Bool (= exclusive call__DRAGON_.exclusive))
(define-fun .def_1469 () Bool (<= shared call_First.First))
(define-fun .def_1466 () Bool (not env))
(define-fun .def_1470 () Bool (or .def_1466 .def_1469))
(define-fun .def_1471 () Bool (= _OK_ .def_1470))
(define-fun .def_1460 () Bool (= call__DRAGON_.ite39 call__DRAGON_.ite40))
(define-fun .def_1461 () Bool (or param_e08 .def_1460))
(define-fun .def_1457 () Bool (= call__DRAGON_.ite37 call__DRAGON_.ite40))
(define-fun .def_1458 () Bool (or .def_1434 .def_1457))
(define-fun .def_1454 () Bool (= call__DRAGON_.ite27 call__DRAGON_.ite28))
(define-fun .def_1455 () Bool (or param_e08 .def_1454))
(define-fun .def_1451 () Bool (= call__DRAGON_.ite25 call__DRAGON_.ite28))
(define-fun .def_1452 () Bool (or .def_1434 .def_1451))
(define-fun .def_1448 () Bool (= call__DRAGON_.ite17 call__DRAGON_.ite18))
(define-fun .def_1449 () Bool (or param_e08 .def_1448))
(define-fun .def_1445 () Bool (= call__DRAGON_.ite18 call__DRAGON_.ite15))
(define-fun .def_1446 () Bool (or .def_1434 .def_1445))
(define-fun .def_1441 () Bool (= call__DRAGON_.ite7 call__DRAGON_.ite8))
(define-fun .def_1442 () Bool (or param_e08 .def_1441))
(define-fun .def_1438 () Bool (= call__DRAGON_.ite5 call__DRAGON_.ite8))
(define-fun .def_1439 () Bool (or .def_1434 .def_1438))
(define-fun .def_1433 () Bool (= call__DRAGON_.ite58 call__DRAGON_.ite49))
(define-fun .def_1435 () Bool (or .def_1433 .def_1434))
(define-fun .def_1429 () Bool (= call__DRAGON_.ite58 call__DRAGON_.ite57))
(define-fun .def_1431 () Bool (or .def_1429 param_e08))
(define-fun .def_1436 () Bool (and .def_1431 .def_1435))
(define-fun .def_1440 () Bool (and .def_1436 .def_1439))
(define-fun .def_1443 () Bool (and .def_1440 .def_1442))
(define-fun .def_1447 () Bool (and .def_1443 .def_1446))
(define-fun .def_1450 () Bool (and .def_1447 .def_1449))
(define-fun .def_1453 () Bool (and .def_1450 .def_1452))
(define-fun .def_1456 () Bool (and .def_1453 .def_1455))
(define-fun .def_1459 () Bool (and .def_1456 .def_1458))
(define-fun .def_1462 () Bool (and .def_1459 .def_1461))
(define-fun .def_1424 () Bool (= call__DRAGON_.ite59 call__DRAGON_.ite58))
(define-fun .def_1425 () Bool (or param_e07 .def_1424))
(define-fun .def_1420 () Bool (= call__DRAGON_.ite48 call__DRAGON_.ite59))
(define-fun .def_1421 () Bool (or .def_1415 .def_1420))
(define-fun .def_1414 () Bool (= call__DRAGON_.ite41 call__DRAGON_.ite36))
(define-fun .def_1416 () Bool (or .def_1414 .def_1415))
(define-fun .def_1410 () Bool (= call__DRAGON_.ite41 call__DRAGON_.ite40))
(define-fun .def_1412 () Bool (or .def_1410 param_e07))
(define-fun .def_1417 () Bool (and .def_1412 .def_1416))
(define-fun .def_1422 () Bool (and .def_1417 .def_1421))
(define-fun .def_1426 () Bool (and .def_1422 .def_1425))
(define-fun .def_1405 () Bool (= call__DRAGON_.ite19 call__DRAGON_.ite20))
(define-fun .def_1406 () Bool (or param_e05 .def_1405))
(define-fun .def_1402 () Bool (= call__DRAGON_.ite13 call__DRAGON_.ite20))
(define-fun .def_1403 () Bool (or .def_1398 .def_1402))
(define-fun .def_1397 () Bool (= call__DRAGON_.ite42 call__DRAGON_.ite35))
(define-fun .def_1399 () Bool (or .def_1397 .def_1398))
(define-fun .def_1393 () Bool (= call__DRAGON_.ite41 call__DRAGON_.ite42))
(define-fun .def_1395 () Bool (or .def_1393 param_e05))
(define-fun .def_1400 () Bool (and .def_1395 .def_1399))
(define-fun .def_1404 () Bool (and .def_1400 .def_1403))
(define-fun .def_1407 () Bool (and .def_1404 .def_1406))
(define-fun .def_1388 () Bool (= call__DRAGON_.ite29 call__DRAGON_.ite28))
(define-fun .def_1389 () Bool (or param_e06 .def_1388))
(define-fun .def_1384 () Bool (= call__DRAGON_.ite24 call__DRAGON_.ite29))
(define-fun .def_1385 () Bool (or .def_1380 .def_1384))
(define-fun .def_1379 () Bool (= call__DRAGON_.ite19 call__DRAGON_.ite14))
(define-fun .def_1381 () Bool (or .def_1379 .def_1380))
(define-fun .def_1375 () Bool (= call__DRAGON_.ite19 call__DRAGON_.ite18))
(define-fun .def_1377 () Bool (or .def_1375 param_e06))
(define-fun .def_1382 () Bool (and .def_1377 .def_1381))
(define-fun .def_1386 () Bool (and .def_1382 .def_1385))
(define-fun .def_1390 () Bool (and .def_1386 .def_1389))
(define-fun .def_1408 () Bool (and .def_1390 .def_1407))
(define-fun .def_1427 () Bool (and .def_1408 .def_1426))
(define-fun .def_1463 () Bool (and .def_1427 .def_1462))
(define-fun .def_1472 () Bool (and .def_1463 .def_1471))
(define-fun .def_1476 () Bool (and .def_1472 .def_1475))
(define-fun .def_1479 () Bool (and .def_1476 .def_1478))
(define-fun .def_1483 () Bool (and .def_1479 .def_1482))
(define-fun .def_1487 () Bool (and .def_1483 .def_1486))
(define-fun .def_1491 () Bool (and .def_1487 .def_1490))
(define-fun .def_1495 () Bool (and .def_1491 .def_1494))
(define-fun .def_1498 () Bool (and .def_1495 .def_1497))
(define-fun .def_1506 () Bool (and .def_1498 .def_1505))
(define-fun .def_1514 () Bool (and .def_1506 .def_1513))
(define-fun .def_1521 () Bool (and .def_1514 .def_1520))
(define-fun .def_1541 () Bool (and .def_1521 .def_1540))
(define-fun .def_1582 () Bool (and .def_1541 .def_1581))
(define-fun .def_1599 () Bool (and .def_1582 .def_1598))
(define-fun .def_1614 () Bool (and .def_1599 .def_1613))
(define-fun .def_1624 () Bool (and .def_1614 .def_1623))
(define-fun .def_1626 () Bool (and .def_1624 .def_1625))
(define-fun .def_1628 () Bool (and .def_1626 .def_1627))
(define-fun .def_1630 () Bool (and .def_1628 .def_1629))
(define-fun .def_1632 () Bool (and .def_1630 .def_1631))
(define-fun .def_1634 () Bool (and .def_1632 .def_1633))
(define-fun .def_1636 () Bool (and .def_1634 .def_1635))
(define-fun .def_1738 () Bool (and .def_1636 .def_1737))
(define-fun .def_1740 () Bool (and .def_1738 .def_1739))
(define-fun .def_1742 () Bool (and .def_1740 .def_1741))
(define-fun .def_1371 () Bool (= param_init_invalid call_First.flby))
(define-fun .def_1363 () Bool (<= param_init_invalid 0))
(define-fun .def_1364 () Bool (not .def_1363))
(define-fun .def_1366 () Bool (and .def_1364 call_excludes12.excludes))
(define-fun .def_1368 () Bool (= .def_1366 call_Sofar.flby))
(define-fun .def_1361 () Bool (= call__DRAGON_.flby4 0))
(define-fun .def_1358 () Bool (= call__DRAGON_.flby3 0))
(define-fun .def_1355 () Bool (= call__DRAGON_.flby2 0))
(define-fun .def_1352 () Bool (= param_init_invalid call__DRAGON_.flby))
(define-fun .def_1346 () Bool (= call__DRAGON_.ite37 0))
(define-fun .def_1339 () Bool (not call__DRAGON_.g08))
(define-fun .def_1347 () Bool (or .def_1339 .def_1346))
(define-fun .def_1342 () Bool (= call__DRAGON_.ite5 0))
(define-fun .def_1343 () Bool (or .def_1339 .def_1342))
(define-fun .def_1337 () Bool (= call__DRAGON_.ite25 1))
(define-fun .def_1340 () Bool (or .def_1337 .def_1339))
(define-fun .def_1344 () Bool (and .def_1340 .def_1343))
(define-fun .def_1348 () Bool (and .def_1344 .def_1347))
(define-fun .def_1333 () Bool (= call__DRAGON_.ite24 1))
(define-fun .def_1331 () Bool (not call__DRAGON_.g06))
(define-fun .def_1334 () Bool (or .def_1331 .def_1333))
(define-fun .def_1327 () Bool (= call__DRAGON_.ite13 0))
(define-fun .def_1325 () Bool (not call__DRAGON_.g05))
(define-fun .def_1328 () Bool (or .def_1325 .def_1327))
(define-fun .def_1321 () Bool (= call__DRAGON_.ite23 0))
(define-fun .def_1319 () Bool (not call__DRAGON_.g04))
(define-fun .def_1322 () Bool (or .def_1319 .def_1321))
(define-fun .def_1314 () Bool (= call__DRAGON_.ite3 0))
(define-fun .def_1311 () Bool (not call__DRAGON_.g02))
(define-fun .def_1315 () Bool (or .def_1311 .def_1314))
(define-fun .def_1309 () Bool (= call__DRAGON_.ite32 0))
(define-fun .def_1312 () Bool (or .def_1309 .def_1311))
(define-fun .def_1316 () Bool (and .def_1312 .def_1315))
(define-fun .def_1306 () Bool (= call__DRAGON_.flby6 call__DRAGON_.mem_init))
(define-fun .def_1302 () Bool (= call__DRAGON_.flby5 0))
(define-fun .def_1297 () Bool (= call__DRAGON_.ite53 call__DRAGON_.ite54))
(define-fun .def_1298 () Bool (or .def_1293 .def_1297))
(define-fun .def_1291 () Bool (= call__DRAGON_.ite6 call__DRAGON_.ite7))
(define-fun .def_1294 () Bool (or .def_1291 .def_1293))
(define-fun .def_1299 () Bool (and .def_1294 .def_1298))
(define-fun .def_1284 () Bool (= call__DRAGON_.ite26 call__DRAGON_.ite27))
(define-fun .def_1287 () Bool (or .def_1284 .def_1286))
(define-fun .def_1277 () Bool (= call__DRAGON_.ite16 call__DRAGON_.ite17))
(define-fun .def_1280 () Bool (or .def_1277 .def_1279))
(define-fun .def_1271 () Bool (= call__DRAGON_.ite38 call__DRAGON_.ite39))
(define-fun .def_1274 () Bool (or .def_1271 .def_1273))
(define-fun .def_1281 () Bool (and .def_1274 .def_1280))
(define-fun .def_1288 () Bool (and .def_1281 .def_1287))
(define-fun .def_1300 () Bool (and .def_1288 .def_1299))
(define-fun .def_1303 () Bool (and .def_1300 .def_1302))
(define-fun .def_1307 () Bool (and .def_1303 .def_1306))
(define-fun .def_1317 () Bool (and .def_1307 .def_1316))
(define-fun .def_1323 () Bool (and .def_1317 .def_1322))
(define-fun .def_1329 () Bool (and .def_1323 .def_1328))
(define-fun .def_1335 () Bool (and .def_1329 .def_1334))
(define-fun .def_1349 () Bool (and .def_1335 .def_1348))
(define-fun .def_1353 () Bool (and .def_1349 .def_1352))
(define-fun .def_1356 () Bool (and .def_1353 .def_1355))
(define-fun .def_1359 () Bool (and .def_1356 .def_1358))
(define-fun .def_1362 () Bool (and .def_1359 .def_1361))
(define-fun .def_1369 () Bool (and .def_1362 .def_1368))
(define-fun .def_1372 () Bool (and .def_1369 .def_1371))
(define-fun .def_1743 () Bool (and .def_1372 .def_1742))
(assert .def_1743)
